certificates/rado_a13_c45_N59.cnf
c Rad2 upper bound instance: x1 + 13*x2 - x3 = 45, interval [1,59]
p cnf 59 498
1 4 8 0
-1 -4 -8 0
1 5 21 0
-1 -5 -21 0
1 6 34 0
-1 -6 -34 0
1 7 47 0
-1 -7 -47 0
2 4 9 0
-2 -4 -9 0
2 5 22 0
-2 -5 -22 0
2 6 35 0
-2 -6 -35 0
2 7 48 0
-2 -7 -48 0
3 4 10 0
-3 -4 -10 0
3 5 23 0
-3 -5 -23 0
3 6 36 0
-3 -6 -36 0
3 7 49 0
-3 -7 -49 0
4 11 0
-4 -11 0
4 5 24 0
-4 -5 -24 0
4 6 37 0
-4 -6 -37 0
4 7 50 0
-4 -7 -50 0
4 5 12 0
-4 -5 -12 0
5 25 0
-5 -25 0
5 6 38 0
-5 -6 -38 0
5 7 51 0
-5 -7 -51 0
4 6 13 0
-4 -6 -13 0
5 6 26 0
-5 -6 -26 0
6 39 0
-6 -39 0
6 7 52 0
-6 -7 -52 0
1 3 7 0
-1 -3 -7 0
4 7 14 0
-4 -7 -14 0
5 7 27 0
-5 -7 -27 0
6 7 40 0
-6 -7 -40 0
7 53 0
-7 -53 0
2 3 8 0
-2 -3 -8 0
4 8 15 0
-4 -8 -15 0
5 8 28 0
-5 -8 -28 0
6 8 41 0
-6 -8 -41 0
7 8 54 0
-7 -8 -54 0
3 9 0
-3 -9 0
4 9 16 0
-4 -9 -16 0
5 9 29 0
-5 -9 -29 0
6 9 42 0
-6 -9 -42 0
7 9 55 0
-7 -9 -55 0
4 10 17 0
-4 -10 -17 0
5 10 30 0
-5 -10 -30 0
6 10 43 0
-6 -10 -43 0
7 10 56 0
-7 -10 -56 0
3 5 11 0
-3 -5 -11 0
4 11 18 0
-4 -11 -18 0
5 11 31 0
-5 -11 -31 0
6 11 44 0
-6 -11 -44 0
7 11 57 0
-7 -11 -57 0
3 6 12 0
-3 -6 -12 0
4 12 19 0
-4 -12 -19 0
5 12 32 0
-5 -12 -32 0
6 12 45 0
-6 -12 -45 0
7 12 58 0
-7 -12 -58 0
3 7 13 0
-3 -7 -13 0
4 13 20 0
-4 -13 -20 0
5 13 33 0
-5 -13 -33 0
6 13 46 0
-6 -13 -46 0
7 13 59 0
-7 -13 -59 0
3 8 14 0
-3 -8 -14 0
4 14 21 0
-4 -14 -21 0
5 14 34 0
-5 -14 -34 0
6 14 47 0
-6 -14 -47 0
3 9 15 0
-3 -9 -15 0
4 15 22 0
-4 -15 -22 0
5 15 35 0
-5 -15 -35 0
6 15 48 0
-6 -15 -48 0
3 10 16 0
-3 -10 -16 0
4 16 23 0
-4 -16 -23 0
5 16 36 0
-5 -16 -36 0
6 16 49 0
-6 -16 -49 0
3 11 17 0
-3 -11 -17 0
4 17 24 0
-4 -17 -24 0
5 17 37 0
-5 -17 -37 0
6 17 50 0
-6 -17 -50 0
3 12 18 0
-3 -12 -18 0
4 18 25 0
-4 -18 -25 0
5 18 38 0
-5 -18 -38 0
6 18 51 0
-6 -18 -51 0
3 13 19 0
-3 -13 -19 0
4 19 26 0
-4 -19 -26 0
5 19 39 0
-5 -19 -39 0
6 19 52 0
-6 -19 -52 0
1 2 20 0
-1 -2 -20 0
3 14 20 0
-3 -14 -20 0
4 20 27 0
-4 -20 -27 0
5 20 40 0
-5 -20 -40 0
6 20 53 0
-6 -20 -53 0
2 21 0
-2 -21 0
3 15 21 0
-3 -15 -21 0
4 21 28 0
-4 -21 -28 0
5 21 41 0
-5 -21 -41 0
6 21 54 0
-6 -21 -54 0
2 3 22 0
-2 -3 -22 0
3 16 22 0
-3 -16 -22 0
4 22 29 0
-4 -22 -29 0
5 22 42 0
-5 -22 -42 0
6 22 55 0
-6 -22 -55 0
2 4 23 0
-2 -4 -23 0
3 17 23 0
-3 -17 -23 0
4 23 30 0
-4 -23 -30 0
5 23 43 0
-5 -23 -43 0
6 23 56 0
-6 -23 -56 0
2 5 24 0
-2 -5 -24 0
3 18 24 0
-3 -18 -24 0
4 24 31 0
-4 -24 -31 0
5 24 44 0
-5 -24 -44 0
6 24 57 0
-6 -24 -57 0
2 6 25 0
-2 -6 -25 0
3 19 25 0
-3 -19 -25 0
4 25 32 0
-4 -25 -32 0
5 25 45 0
-5 -25 -45 0
6 25 58 0
-6 -25 -58 0
2 7 26 0
-2 -7 -26 0
3 20 26 0
-3 -20 -26 0
4 26 33 0
-4 -26 -33 0
5 26 46 0
-5 -26 -46 0
6 26 59 0
-6 -26 -59 0
2 8 27 0
-2 -8 -27 0
3 21 27 0
-3 -21 -27 0
4 27 34 0
-4 -27 -34 0
5 27 47 0
-5 -27 -47 0
2 9 28 0
-2 -9 -28 0
3 22 28 0
-3 -22 -28 0
4 28 35 0
-4 -28 -35 0
5 28 48 0
-5 -28 -48 0
2 10 29 0
-2 -10 -29 0
3 23 29 0
-3 -23 -29 0
4 29 36 0
-4 -29 -36 0
5 29 49 0
-5 -29 -49 0
2 11 30 0
-2 -11 -30 0
3 24 30 0
-3 -24 -30 0
4 30 37 0
-4 -30 -37 0
5 30 50 0
-5 -30 -50 0
2 12 31 0
-2 -12 -31 0
3 25 31 0
-3 -25 -31 0
4 31 38 0
-4 -31 -38 0
5 31 51 0
-5 -31 -51 0
2 13 32 0
-2 -13 -32 0
3 26 32 0
-3 -26 -32 0
4 32 39 0
-4 -32 -39 0
5 32 52 0
-5 -32 -52 0
1 33 0
-1 -33 0
2 14 33 0
-2 -14 -33 0
3 27 33 0
-3 -27 -33 0
4 33 40 0
-4 -33 -40 0
5 33 53 0
-5 -33 -53 0
1 2 34 0
-1 -2 -34 0
2 15 34 0
-2 -15 -34 0
3 28 34 0
-3 -28 -34 0
4 34 41 0
-4 -34 -41 0
5 34 54 0
-5 -34 -54 0
1 3 35 0
-1 -3 -35 0
2 16 35 0
-2 -16 -35 0
3 29 35 0
-3 -29 -35 0
4 35 42 0
-4 -35 -42 0
5 35 55 0
-5 -35 -55 0
1 4 36 0
-1 -4 -36 0
2 17 36 0
-2 -17 -36 0
3 30 36 0
-3 -30 -36 0
4 36 43 0
-4 -36 -43 0
5 36 56 0
-5 -36 -56 0
1 5 37 0
-1 -5 -37 0
2 18 37 0
-2 -18 -37 0
3 31 37 0
-3 -31 -37 0
4 37 44 0
-4 -37 -44 0
5 37 57 0
-5 -37 -57 0
1 6 38 0
-1 -6 -38 0
2 19 38 0
-2 -19 -38 0
3 32 38 0
-3 -32 -38 0
4 38 45 0
-4 -38 -45 0
5 38 58 0
-5 -38 -58 0
1 7 39 0
-1 -7 -39 0
2 20 39 0
-2 -20 -39 0
3 33 39 0
-3 -33 -39 0
4 39 46 0
-4 -39 -46 0
5 39 59 0
-5 -39 -59 0
1 8 40 0
-1 -8 -40 0
2 21 40 0
-2 -21 -40 0
3 34 40 0
-3 -34 -40 0
4 40 47 0
-4 -40 -47 0
1 9 41 0
-1 -9 -41 0
2 22 41 0
-2 -22 -41 0
3 35 41 0
-3 -35 -41 0
4 41 48 0
-4 -41 -48 0
1 10 42 0
-1 -10 -42 0
2 23 42 0
-2 -23 -42 0
3 36 42 0
-3 -36 -42 0
4 42 49 0
-4 -42 -49 0
1 11 43 0
-1 -11 -43 0
2 24 43 0
-2 -24 -43 0
3 37 43 0
-3 -37 -43 0
4 43 50 0
-4 -43 -50 0
1 12 44 0
-1 -12 -44 0
2 25 44 0
-2 -25 -44 0
3 38 44 0
-3 -38 -44 0
4 44 51 0
-4 -44 -51 0
1 13 45 0
-1 -13 -45 0
2 26 45 0
-2 -26 -45 0
3 39 45 0
-3 -39 -45 0
4 45 52 0
-4 -45 -52 0
1 14 46 0
-1 -14 -46 0
2 27 46 0
-2 -27 -46 0
3 40 46 0
-3 -40 -46 0
4 46 53 0
-4 -46 -53 0
1 15 47 0
-1 -15 -47 0
2 28 47 0
-2 -28 -47 0
3 41 47 0
-3 -41 -47 0
4 47 54 0
-4 -47 -54 0
1 16 48 0
-1 -16 -48 0
2 29 48 0
-2 -29 -48 0
3 42 48 0
-3 -42 -48 0
4 48 55 0
-4 -48 -55 0
1 17 49 0
-1 -17 -49 0
2 30 49 0
-2 -30 -49 0
3 43 49 0
-3 -43 -49 0
4 49 56 0
-4 -49 -56 0
1 18 50 0
-1 -18 -50 0
2 31 50 0
-2 -31 -50 0
3 44 50 0
-3 -44 -50 0
4 50 57 0
-4 -50 -57 0
1 19 51 0
-1 -19 -51 0
2 32 51 0
-2 -32 -51 0
3 45 51 0
-3 -45 -51 0
4 51 58 0
-4 -51 -58 0
1 20 52 0
-1 -20 -52 0
2 33 52 0
-2 -33 -52 0
3 46 52 0
-3 -46 -52 0
4 52 59 0
-4 -52 -59 0
1 21 53 0
-1 -21 -53 0
2 34 53 0
-2 -34 -53 0
3 47 53 0
-3 -47 -53 0
1 22 54 0
-1 -22 -54 0
2 35 54 0
-2 -35 -54 0
3 48 54 0
-3 -48 -54 0
1 23 55 0
-1 -23 -55 0
2 36 55 0
-2 -36 -55 0
3 49 55 0
-3 -49 -55 0
1 24 56 0
-1 -24 -56 0
2 37 56 0
-2 -37 -56 0
3 50 56 0
-3 -50 -56 0
1 25 57 0
-1 -25 -57 0
2 38 57 0
-2 -38 -57 0
3 51 57 0
-3 -51 -57 0
1 26 58 0
-1 -26 -58 0
2 39 58 0
-2 -39 -58 0
3 52 58 0
-3 -52 -58 0
1 27 59 0
-1 -27 -59 0
2 40 59 0
-2 -40 -59 0
3 53 59 0
-3 -53 -59 0
