certificates/rado_a13_c45_N59.drat
-53 -56 -59 0
9 52 -4 53 0
-56 -57 -59 0
53 -57 -59 0
-53 -59 0
d -53 -56 -59 0
3 12 57 0
-58 -59 0
-3 -59 0
-7 -59 0
d -13 -7 -59 0
-59 0
-3 -7 0
d -3 -1 -7 0
-7 0
53 0
13 0
-12 -3 0
-3 0
1 0
9 0
49 0
-33 0
-21 0
-41 0
-45 0
-17 0
27 0
39 0
2 0
15 0
47 0
5 0
35 0
51 0
23 0
11 0
0
